pr8_2
0 45 134 145 79 102 111 138 28 55 40 47 133 118 27 21 43 13 95 24 70 64 77 149 48 97 46 61 140 51 29 20 130 82 10 8 139 144 113 73 50 38 96 37 81 6 19 117 57 91 100 129 41 3 26 143 90 69 88 112 105 63 65 99 94 72 75 84 11 92 42 124 126 74 14 17 125 31 115 9 23 123 56 108 66 147 0 33 107 39 114 109 15 68 30 106 127 12 34 62 85 32 89 78 98 146 83 25 103 22 76 104 80 59 128 49 120 132 58 44 52 71 119 18 16 2 116 135 142 136 36 35 7 53 60 86 141 67 110 122 93 131 54 148 137 101 87 2 121 0